
Gurobi 10.0.1 (win64) logging started Sun Aug 27 19:51:39 2023

Set parameter LogFile to value "results//log/Fattahi_setup_05_modified_old_deadline.log"
Gurobi Optimizer version 10.0.1 build v10.0.1rc0 (win64)

CPU model: AMD Ryzen 7 3700X 8-Core Processor, instruction set [SSE2|AVX|AVX2]
Thread count: 8 physical cores, 16 logical processors, using up to 16 threads

Optimize a model with 123 rows, 67 columns and 474 nonzeros
Model fingerprint: 0x557d9469
Model has 1 quadratic constraint
Variable types: 12 continuous, 55 integer (54 binary)
Coefficient statistics:
  Matrix range     [1e+00, 1e+06]
  QMatrix range    [1e+00, 1e+00]
  QLMatrix range   [1e+00, 5e+02]
  Objective range  [1e+00, 1e+00]
  Bounds range     [1e+00, 1e+00]
  RHS range        [1e+00, 3e+06]
Presolve removed 18 rows and 24 columns
Presolve time: 0.00s
Presolved: 112 rows, 49 columns, 478 nonzeros
Variable types: 18 continuous, 31 integer (30 binary)
Found heuristic solution: objective 842.0000000
Found heuristic solution: objective 706.0000000
Found heuristic solution: objective 627.0000000

Root relaxation: objective 0.000000e+00, 27 iterations, 0.00 seconds (0.00 work units)

    Nodes    |    Current Node    |     Objective Bounds      |     Work
 Expl Unexpl |  Obj  Depth IntInf | Incumbent    BestBd   Gap | It/Node Time

     0     0    0.00000    0    9  627.00000    0.00000   100%     -    0s
     0     0    0.00000    0    9  627.00000    0.00000   100%     -    0s
     0     0    0.00000    0    8  627.00000    0.00000   100%     -    0s
     0     0  220.00000    0   10  627.00000  220.00000  64.9%     -    0s
H    0     0                     587.0000000  233.00000  60.3%     -    0s
     0     0  233.00000    0    8  587.00000  233.00000  60.3%     -    0s
     0     0  235.69231    0    7  587.00000  235.69231  59.8%     -    0s
     0     0  242.00000    0    9  587.00000  242.00000  58.8%     -    0s
     0     0  248.00000    0   12  587.00000  248.00000  57.8%     -    0s
     0     0  248.00000    0   12  587.00000  248.00000  57.8%     -    0s
     0     2  248.00000    0    6  587.00000  248.00000  57.8%     -    0s

Cutting planes:
  Learned: 25
  Gomory: 1
  Cover: 5
  Implied bound: 6
  MIR: 5
  Flow cover: 18
  Inf proof: 1
  RLT: 5
  Relax-and-lift: 3

Explored 197 nodes (1324 simplex iterations) in 0.06 seconds (0.02 work units)
Thread count was 16 (of 16 available processors)

Solution count 4: 587 627 706 842 

Optimal solution found (tolerance 1.00e-04)
Best objective 5.870000000000e+02, best bound 5.870000000000e+02, gap 0.0000%
Warning: constraint name "precedence between 0,1 to 0,0 if x_[j,l,h,z,i]=1" has a space
Warning: constraint name "precedence between 0,1 to 0,0 if x_[j,l,h,z,i]=1" has a space
Warning: default constraint names used to write mps file
